(set-info :source |printed by MathSAT|)
(declare-fun param_etat_me2 () Bool)
(declare-fun call_mesi.ite16 () Int)
(declare-fun env () Bool)
(declare-fun call_mesi.ite4 () Int)
(declare-fun call_mesi.ite6 () Int)
(declare-fun call_mesi.exclusive_me () Int)
(declare-fun call_mesi.ite10 () Int)
(declare-fun call_mesi.ite28 () Int)
(declare-fun call_mesi.ite9 () Int)
(declare-fun call_mesi.flby () Int)
(declare-fun call_mesi.shared_me () Int)
(declare-fun call_mesi.ite15 () Int)
(declare-fun call_mesi.invalid_me () Int)
(declare-fun call_mesi.ite32 () Int)
(declare-fun call_mesi.flby2 () Int)
(declare-fun call_mesi.ite20 () Int)
(declare-fun call_mesi.ite14 () Int)
(declare-fun call_mesi.ite12 () Int)
(declare-fun call_mesi.ite8 () Int)
(declare-fun call_mesi.garde_me3 () Bool)
(declare-fun call_mesi.ite3 () Int)
(declare-fun call_mesi.ite29 () Int)
(declare-fun call_mesi.ite24 () Int)
(declare-fun call_Sofar.Sofar () Bool)
(declare-fun call_mesi.ite11 () Int)
(declare-fun call_mesi.ite19 () Int)
(declare-fun call_mesi.ite31 () Int)
(declare-fun call_excludes4.excludes () Bool)
(declare-fun shared_me () Int)
(declare-fun call_mesi.ite5 () Int)
(declare-fun call_mesi.ite30 () Int)
(declare-fun call_mesi.garde_me1 () Bool)
(declare-fun _OK_ () Bool)
(declare-fun param_etat_me3 () Bool)
(declare-fun invalid_me () Int)
(declare-fun call_mesi.ite23 () Int)
(declare-fun modified_me () Int)
(declare-fun param_etat_me1 () Bool)
(declare-fun param_etat_me4 () Bool)
(declare-fun call_mesi.flby4 () Int)
(declare-fun call_Sofar.flby () Bool)
(declare-fun call_mesi.ite25 () Int)
(declare-fun exclusive_me () Int)
(declare-fun call_mesi.ite26 () Int)
(declare-fun call_mesi.ite2 () Int)
(declare-fun call_mesi.flby3 () Int)
(declare-fun call_mesi.garde_me4 () Bool)
(declare-fun call_mesi.ite27 () Int)
(declare-fun call_mesi.ite22 () Int)
(declare-fun call_mesi.modified_me () Int)
(declare-fun call_mesi.ite17 () Int)
(declare-fun call_mesi.ite21 () Int)
(declare-fun call_mesi.ite () Int)
(declare-fun call_mesi.ite7 () Int)
(declare-fun call_mesi.ite18 () Int)
(declare-fun call_mesi.ite13 () Int)
(define-fun .def_802 () Bool (= call_Sofar.flby call_Sofar.Sofar))
(define-fun .def_797 () Bool (and param_etat_me4 param_etat_me3))
(define-fun .def_792 () Bool (and param_etat_me1 param_etat_me2))
(define-fun .def_791 () Bool (and param_etat_me3 param_etat_me1))
(define-fun .def_793 () Bool (or .def_791 .def_792))
(define-fun .def_790 () Bool (and param_etat_me4 param_etat_me1))
(define-fun .def_794 () Bool (or .def_790 .def_793))
(define-fun .def_789 () Bool (and param_etat_me3 param_etat_me2))
(define-fun .def_795 () Bool (or .def_789 .def_794))
(define-fun .def_788 () Bool (and param_etat_me4 param_etat_me2))
(define-fun .def_796 () Bool (or .def_788 .def_795))
(define-fun .def_798 () Bool (or .def_796 .def_797))
(define-fun .def_799 () Bool (not .def_798))
(define-fun .def_800 () Bool (= call_excludes4.excludes .def_799))
(define-fun .def_786 () Bool (= call_mesi.flby4 call_mesi.invalid_me))
(define-fun .def_784 () Bool (= call_mesi.flby3 call_mesi.shared_me))
(define-fun .def_782 () Bool (= call_mesi.flby2 call_mesi.exclusive_me))
(define-fun .def_780 () Bool (= call_mesi.flby call_mesi.modified_me))
(define-fun .def_776 () Bool (= call_mesi.ite30 call_mesi.ite31))
(define-fun .def_777 () Bool (or param_etat_me2 .def_776))
(define-fun .def_773 () Bool (= call_mesi.ite31 call_mesi.ite26))
(define-fun .def_755 () Bool (not param_etat_me2))
(define-fun .def_774 () Bool (or .def_755 .def_773))
(define-fun .def_769 () Bool (= call_mesi.ite22 call_mesi.ite23))
(define-fun .def_770 () Bool (or param_etat_me2 .def_769))
(define-fun .def_766 () Bool (= call_mesi.ite23 call_mesi.ite18))
(define-fun .def_767 () Bool (or .def_755 .def_766))
(define-fun .def_762 () Bool (= call_mesi.ite14 call_mesi.ite15))
(define-fun .def_763 () Bool (or param_etat_me2 .def_762))
(define-fun .def_759 () Bool (= call_mesi.ite15 call_mesi.ite10))
(define-fun .def_760 () Bool (or .def_755 .def_759))
(define-fun .def_754 () Bool (= call_mesi.ite7 call_mesi.ite2))
(define-fun .def_756 () Bool (or .def_754 .def_755))
(define-fun .def_750 () Bool (= call_mesi.ite6 call_mesi.ite7))
(define-fun .def_752 () Bool (or .def_750 param_etat_me2))
(define-fun .def_757 () Bool (and .def_752 .def_756))
(define-fun .def_761 () Bool (and .def_757 .def_760))
(define-fun .def_764 () Bool (and .def_761 .def_763))
(define-fun .def_768 () Bool (and .def_764 .def_767))
(define-fun .def_771 () Bool (and .def_768 .def_770))
(define-fun .def_775 () Bool (and .def_771 .def_774))
(define-fun .def_778 () Bool (and .def_775 .def_777))
(define-fun .def_746 () Bool (= call_mesi.ite32 call_mesi.ite31))
(define-fun .def_747 () Bool (or param_etat_me1 .def_746))
(define-fun .def_742 () Bool (= call_mesi.ite25 call_mesi.ite32))
(define-fun .def_720 () Bool (not param_etat_me1))
(define-fun .def_743 () Bool (or .def_720 .def_742))
(define-fun .def_737 () Bool (= call_mesi.ite24 call_mesi.ite23))
(define-fun .def_738 () Bool (or param_etat_me1 .def_737))
(define-fun .def_733 () Bool (= call_mesi.ite17 call_mesi.ite24))
(define-fun .def_734 () Bool (or .def_720 .def_733))
(define-fun .def_728 () Bool (= call_mesi.ite16 call_mesi.ite15))
(define-fun .def_729 () Bool (or param_etat_me1 .def_728))
(define-fun .def_724 () Bool (= call_mesi.ite9 call_mesi.ite16))
(define-fun .def_725 () Bool (or .def_720 .def_724))
(define-fun .def_719 () Bool (= call_mesi.ite call_mesi.ite8))
(define-fun .def_721 () Bool (or .def_719 .def_720))
(define-fun .def_716 () Bool (= call_mesi.ite8 call_mesi.ite7))
(define-fun .def_718 () Bool (or .def_716 param_etat_me1))
(define-fun .def_722 () Bool (and .def_718 .def_721))
(define-fun .def_726 () Bool (and .def_722 .def_725))
(define-fun .def_730 () Bool (and .def_726 .def_729))
(define-fun .def_735 () Bool (and .def_730 .def_734))
(define-fun .def_739 () Bool (and .def_735 .def_738))
(define-fun .def_744 () Bool (and .def_739 .def_743))
(define-fun .def_748 () Bool (and .def_744 .def_747))
(define-fun .def_712 () Bool (= env call_Sofar.Sofar))
(define-fun .def_709 () Bool (= invalid_me call_mesi.invalid_me))
(define-fun .def_705 () Bool (= shared_me call_mesi.shared_me))
(define-fun .def_701 () Bool (= exclusive_me call_mesi.exclusive_me))
(define-fun .def_697 () Bool (= modified_me call_mesi.modified_me))
(define-fun .def_692 () Bool (= call_mesi.ite29 call_mesi.ite30))
(define-fun .def_693 () Bool (or param_etat_me3 .def_692))
(define-fun .def_689 () Bool (= call_mesi.ite27 call_mesi.ite30))
(define-fun .def_670 () Bool (not param_etat_me3))
(define-fun .def_690 () Bool (or .def_670 .def_689))
(define-fun .def_684 () Bool (= call_mesi.ite21 call_mesi.ite22))
(define-fun .def_685 () Bool (or param_etat_me3 .def_684))
(define-fun .def_681 () Bool (= call_mesi.ite19 call_mesi.ite22))
(define-fun .def_682 () Bool (or .def_670 .def_681))
(define-fun .def_677 () Bool (= call_mesi.ite13 call_mesi.ite14))
(define-fun .def_678 () Bool (or param_etat_me3 .def_677))
(define-fun .def_674 () Bool (= call_mesi.ite11 call_mesi.ite14))
(define-fun .def_675 () Bool (or .def_670 .def_674))
(define-fun .def_669 () Bool (= call_mesi.ite3 call_mesi.ite6))
(define-fun .def_671 () Bool (or .def_669 .def_670))
(define-fun .def_666 () Bool (= call_mesi.ite5 call_mesi.ite6))
(define-fun .def_668 () Bool (or .def_666 param_etat_me3))
(define-fun .def_672 () Bool (and .def_668 .def_671))
(define-fun .def_676 () Bool (and .def_672 .def_675))
(define-fun .def_679 () Bool (and .def_676 .def_678))
(define-fun .def_683 () Bool (and .def_679 .def_682))
(define-fun .def_686 () Bool (and .def_683 .def_685))
(define-fun .def_691 () Bool (and .def_686 .def_690))
(define-fun .def_694 () Bool (and .def_691 .def_693))
(define-fun .def_662 () Bool (<= modified_me 2))
(define-fun .def_661 () Bool (not env))
(define-fun .def_663 () Bool (or .def_661 .def_662))
(define-fun .def_664 () Bool (= _OK_ .def_663))
(define-fun .def_695 () Bool (and .def_664 .def_694))
(define-fun .def_698 () Bool (and .def_695 .def_697))
(define-fun .def_702 () Bool (and .def_698 .def_701))
(define-fun .def_706 () Bool (and .def_702 .def_705))
(define-fun .def_710 () Bool (and .def_706 .def_709))
(define-fun .def_713 () Bool (and .def_710 .def_712))
(define-fun .def_749 () Bool (and .def_713 .def_748))
(define-fun .def_779 () Bool (and .def_749 .def_778))
(define-fun .def_781 () Bool (and .def_779 .def_780))
(define-fun .def_783 () Bool (and .def_781 .def_782))
(define-fun .def_785 () Bool (and .def_783 .def_784))
(define-fun .def_787 () Bool (and .def_785 .def_786))
(define-fun .def_801 () Bool (and .def_787 .def_800))
(define-fun .def_803 () Bool (and .def_801 .def_802))
(define-fun .def_653 () Bool (<= 0 modified_me))
(define-fun .def_655 () Bool (and .def_653 call_excludes4.excludes))
(define-fun .def_657 () Bool (= .def_655 call_Sofar.flby))
(define-fun .def_650 () Bool (= call_mesi.flby4 3))
(define-fun .def_647 () Bool (= call_mesi.flby3 0))
(define-fun .def_644 () Bool (= call_mesi.flby2 0))
(define-fun .def_641 () Bool (= call_mesi.flby 0))
(define-fun .def_636 () Bool (= call_mesi.ite20 0))
(define-fun .def_631 () Bool (not call_mesi.garde_me4))
(define-fun .def_637 () Bool (or .def_631 .def_636))
(define-fun .def_633 () Bool (= call_mesi.ite4 0))
(define-fun .def_634 () Bool (or .def_631 .def_633))
(define-fun .def_629 () Bool (= call_mesi.ite12 1))
(define-fun .def_632 () Bool (or .def_629 .def_631))
(define-fun .def_635 () Bool (and .def_632 .def_634))
(define-fun .def_638 () Bool (and .def_635 .def_637))
(define-fun .def_625 () Bool (= call_mesi.ite19 0))
(define-fun .def_618 () Bool (not call_mesi.garde_me3))
(define-fun .def_626 () Bool (or .def_618 .def_625))
(define-fun .def_621 () Bool (= call_mesi.ite3 0))
(define-fun .def_622 () Bool (or .def_618 .def_621))
(define-fun .def_616 () Bool (= call_mesi.ite11 1))
(define-fun .def_619 () Bool (or .def_616 .def_618))
(define-fun .def_623 () Bool (and .def_619 .def_622))
(define-fun .def_627 () Bool (and .def_623 .def_626))
(define-fun .def_611 () Bool (= call_mesi.ite 0))
(define-fun .def_608 () Bool (not call_mesi.garde_me1))
(define-fun .def_612 () Bool (or .def_608 .def_611))
(define-fun .def_606 () Bool (= call_mesi.ite9 0))
(define-fun .def_609 () Bool (or .def_606 .def_608))
(define-fun .def_613 () Bool (and .def_609 .def_612))
(define-fun .def_602 () Bool (= call_mesi.ite28 call_mesi.ite29))
(define-fun .def_588 () Bool (not param_etat_me4))
(define-fun .def_603 () Bool (or .def_588 .def_602))
(define-fun .def_597 () Bool (= call_mesi.ite20 call_mesi.ite21))
(define-fun .def_598 () Bool (or .def_588 .def_597))
(define-fun .def_592 () Bool (= call_mesi.ite4 call_mesi.ite5))
(define-fun .def_593 () Bool (or .def_588 .def_592))
(define-fun .def_586 () Bool (= call_mesi.ite12 call_mesi.ite13))
(define-fun .def_589 () Bool (or .def_586 .def_588))
(define-fun .def_594 () Bool (and .def_589 .def_593))
(define-fun .def_599 () Bool (and .def_594 .def_598))
(define-fun .def_604 () Bool (and .def_599 .def_603))
(define-fun .def_614 () Bool (and .def_604 .def_613))
(define-fun .def_628 () Bool (and .def_614 .def_627))
(define-fun .def_639 () Bool (and .def_628 .def_638))
(define-fun .def_642 () Bool (and .def_639 .def_641))
(define-fun .def_645 () Bool (and .def_642 .def_644))
(define-fun .def_648 () Bool (and .def_645 .def_647))
(define-fun .def_651 () Bool (and .def_648 .def_650))
(define-fun .def_658 () Bool (and .def_651 .def_657))
(define-fun .def_804 () Bool (and .def_658 .def_803))
(assert .def_804)
